NAME: tsp5_7
COMMENT: 5-tsp problem (Padberg/Rinaldi)
TYPE: TSP
DIMENSION: 5
EDGE_WEIGHT_TYPE : EUC_2D
NODE_COORD_SECTION
1.00 34.45 9.90
2.00 15.42 32.28
3.00 18.51 22.48
4.00 26.07 12.82
5.00 19.54 14.18
